NAME: joint_tsp2
COMMENT : Welding Problem
TYPE : TSP
DIMENSION :8
EDGE_WEIGHT_TYPE : EXPLICIT
EDGE_WEIGHT_FORMAT: FULL_MATRIX 
EDGE_WEIGHT_SECTION 
0	3651	2007	2475	2874	2279	2692	2808	
3651	0	2921	1910	1973	3082	1911	3531	
2007	2921	0	3508	2734	1856	3064	2192	
2475	1910	3508	0	3979	2464	1836	2795	
2874	1973	2734	3979	0	2415	1373	2227	
2279	3082	1856	2464	2415	0	2694	1391	
2692	1911	3064	1836	1373	2694	0	2426	
2808	3531	2192	2795	2227	1391	2426	0	
EOF
